c Sudoku solution
p cnf 729 0
154 0
179 0
263 0
295 0
315 0
349 0
358 0
387 0
519 0
527 0
568 0
574 0
583 0
653 0
677 0
696 0
716 0
733 0
762 0
784 0
394 0
844 0
943 0
748 0
911 0
935 0
924 0
729 0
239 0
214 0
972 0
997 0
791 0
775 0
757 0
988 0
247 0
467 0
664 0
459 0
434 0
689 0
956 0
969 0
485 0
625 0
886 0
873 0
899 0
193 0
278 0
323 0
332 0
413 0
376 0
226 0
361 0
252 0
182 0
281 0
536 0
446 0
145 0
166 0
555 0
851 0
865 0
471 0
592 0
498 0
631 0
422 0
618 0
541 0
642 0
812 0
828 0
837 0
117 0
121 0
138 0
